(declare-const x String)
(declare-const y String)
(assert (str.in.re x (re.* (re.++ (re.* (str.to.re "b")) (re.* (re.union (re.+ (str.to.re "q")) (str.to.re "a")))))))
(assert (str.in.re y (str.to.re "a")))
(check-sat)
(get-model)
